c Generated map
c Size: 9 * 9, weights in range: 1 to 10, walls: False, with ratio 0.0
c dim 1 of 7
c
p sp 81 144
c graph contains 81 nodes and 144 arcs
c
a 1 10 7
a 10 1 7
a 1 2 1
a 2 1 1
a 2 11 9
a 11 2 9
a 2 3 2
a 3 2 2
a 3 12 8
a 12 3 8
a 3 4 1
a 4 3 1
a 4 13 4
a 13 4 4
a 4 5 3
a 5 4 3
a 5 14 2
a 14 5 2
a 5 6 1
a 6 5 1
a 6 15 10
a 15 6 10
a 6 7 7
a 7 6 7
a 7 16 4
a 16 7 4
a 7 8 6
a 8 7 6
a 8 17 9
a 17 8 9
a 8 9 8
a 9 8 8
a 9 18 8
a 18 9 8
a 10 19 6
a 19 10 6
a 10 11 10
a 11 10 10
a 11 20 10
a 20 11 10
a 11 12 2
a 12 11 2
a 12 21 7
a 21 12 7
a 12 13 5
a 13 12 5
a 13 22 9
a 22 13 9
a 13 14 2
a 14 13 2
a 14 23 3
a 23 14 3
a 14 15 5
a 15 14 5
a 15 24 7
a 24 15 7
a 15 16 10
a 16 15 10
a 16 25 5
a 25 16 5
a 16 17 5
a 17 16 5
a 17 26 6
a 26 17 6
a 17 18 7
a 18 17 7
a 18 27 3
a 27 18 3
a 19 28 6
a 28 19 6
a 19 20 2
a 20 19 2
a 20 29 3
a 29 20 3
a 20 21 8
a 21 20 8
a 21 30 8
a 30 21 8
a 21 22 9
a 22 21 9
a 22 31 5
a 31 22 5
a 22 23 1
a 23 22 1
a 23 32 10
a 32 23 10
a 23 24 4
a 24 23 4
a 24 33 9
a 33 24 9
a 24 25 6
a 25 24 6
a 25 34 1
a 34 25 1
a 25 26 8
a 26 25 8
a 26 35 5
a 35 26 5
a 26 27 1
a 27 26 1
a 27 36 2
a 36 27 2
a 28 37 9
a 37 28 9
a 28 29 1
a 29 28 1
a 29 38 7
a 38 29 7
a 29 30 6
a 30 29 6
a 30 39 10
a 39 30 10
a 30 31 4
a 31 30 4
a 31 40 8
a 40 31 8
a 31 32 10
a 32 31 10
a 32 41 3
a 41 32 3
a 32 33 4
a 33 32 4
a 33 42 6
a 42 33 6
a 33 34 8
a 34 33 8
a 34 43 5
a 43 34 5
a 34 35 5
a 35 34 5
a 35 44 10
a 44 35 10
a 35 36 2
a 36 35 2
a 36 45 9
a 45 36 9
a 37 46 3
a 46 37 3
a 37 38 10
a 38 37 10
a 38 47 5
a 47 38 5
a 38 39 7
a 39 38 7
a 39 48 4
a 48 39 4
a 39 40 6
a 40 39 6
a 40 49 10
a 49 40 10
a 40 41 10
a 41 40 10
a 41 50 3
a 50 41 3
a 41 42 2
a 42 41 2
a 42 51 3
a 51 42 3
a 42 43 7
a 43 42 7
a 43 52 9
a 52 43 9
a 43 44 1
a 44 43 1
a 44 53 6
a 53 44 6
a 44 45 9
a 45 44 9
a 45 54 6
a 54 45 6
a 46 55 6
a 55 46 6
a 46 47 7
a 47 46 7
a 47 56 8
a 56 47 8
a 47 48 2
a 48 47 2
a 48 57 7
a 57 48 7
a 48 49 5
a 49 48 5
a 49 58 10
a 58 49 10
a 49 50 5
a 50 49 5
a 50 59 10
a 59 50 10
a 50 51 5
a 51 50 5
a 51 60 7
a 60 51 7
a 51 52 7
a 52 51 7
a 52 61 4
a 61 52 4
a 52 53 1
a 53 52 1
a 53 62 10
a 62 53 10
a 53 54 9
a 54 53 9
a 54 63 10
a 63 54 10
a 55 64 1
a 64 55 1
a 55 56 1
a 56 55 1
a 56 65 3
a 65 56 3
a 56 57 7
a 57 56 7
a 57 66 1
a 66 57 1
a 57 58 6
a 58 57 6
a 58 67 1
a 67 58 1
a 58 59 3
a 59 58 3
a 59 68 4
a 68 59 4
a 59 60 9
a 60 59 9
a 60 69 5
a 69 60 5
a 60 61 3
a 61 60 3
a 61 70 6
a 70 61 6
a 61 62 7
a 62 61 7
a 62 71 4
a 71 62 4
a 62 63 4
a 63 62 4
a 63 72 2
a 72 63 2
a 64 73 8
a 73 64 8
a 64 65 6
a 65 64 6
a 65 74 4
a 74 65 4
a 65 66 4
a 66 65 4
a 66 75 2
a 75 66 2
a 66 67 2
a 67 66 2
a 67 76 7
a 76 67 7
a 67 68 4
a 68 67 4
a 68 77 9
a 77 68 9
a 68 69 8
a 69 68 8
a 69 78 6
a 78 69 6
a 69 70 9
a 70 69 9
a 70 79 2
a 79 70 2
a 70 71 10
a 71 70 10
a 71 80 9
a 80 71 9
a 71 72 5
a 72 71 5
a 72 81 1
a 81 72 1
a 73 74 1
a 74 73 1
a 74 75 9
a 75 74 9
a 75 76 5
a 76 75 5
a 76 77 7
a 77 76 7
a 77 78 1
a 78 77 1
a 78 79 9
a 79 78 9
a 79 80 9
a 80 79 9
a 80 81 9
a 81 80 9
